# 37106
param n := 30;
param s := 1;
set E :=  (0,21) (0,29) (1,14) (1,15) (1,25) (2,12) (3,6) (4,11) (4,17) (5,20) (5,23) (6,23) (6,28) (7,14) (7,27) (8,11) (9,18) (9,24) (10,12) (11,17) (11,28) (12,16) (12,22) (12,27) (13,15) (16,17) (16,19) (16,24) (19,21) (21,26) (24,25);
